94 94
26 42
27 44
33 53
29 45
32 86
13 82
18 32
16 80
38 90
45 59
11 81
37 76
4 61
13 15
3 62
4 54
34 66
44 92
9 10
2 51
38 79
37 75
15 84
45 56
36 83
21 88
10 12
1 38
12 64
25 74
46 11
35 60
5 41
6 34
25 93
41 3
16 28
23 39
40 65
26 36
5 47
39 23
34 22
42 20
14 87
41 91
9 29
30 77
8 1
31 40
23 33
43 43
22 52
2 19
19 17
28 5
22 26
10 49
36 18
20 37
29 68
3 2
33 27
6 46
46 73
32 7
18 57
24 94
7 4
47 16
17 13
44 78
7 71
11 21
19 48
28 63
14 55
47 14
30 58
17 70
42 89
24 25
39 31
8 8
12 72
1 9
21 50
31 24
15 67
35 30
27 6
20 35
43 85
40 69
